16 32
1 2 4
1 5 3
2 3 4
2 6 3
3 4 3
3 7 2
4 8 1
5 6 2
5 9 5
6 7 2
6 10 4
7 8 3
7 11 1
8 12 3
9 10 3
9 13 1
10 11 5
10 14 5
11 12 1
11 15 5
12 16 5
13 14 4
14 15 2
15 16 4
1 13 3
2 14 4
3 15 3
4 16 4
1 4 3
5 8 1
9 12 3
13 16 1
